300
120 120
1 96 5
2 96 297
3 95 892
4 95 151
5 95 160
6 95 968
7 95 576
8 94 873
9 94 713
10 94 849
11 94 640
12 93 710
13 93 958
14 93 87
15 93 561
16 93 676
17 93 127
18 93 136
19 92 705
20 92 955
21 92 608
22 91 53
23 91 297
24 91 168
25 91 415
26 91 407
27 91 911
28 91 802
29 91 397
30 91 57
31 90 478
32 90 834
33 90 704
34 90 765
35 89 569
36 88 131
37 88 155
38 88 409
39 87 456
40 87 110
41 87 866
42 87 608
43 86 301
44 86 502
45 85 936
46 85 229
47 84 277
48 84 241
49 84 483
50 84 273
51 83 93
52 83 381
53 83 808
54 83 832
55 83 921
56 83 985
57 82 377
58 82 824
59 82 371
60 82 792
61 81 206
62 81 777
63 81 208
64 81 120
65 81 26
66 81 729
67 79 756
68 79 245
69 79 221
70 79 223
71 79 920
72 79 796
73 78 401
74 77 194
75 77 539
76 77 499
77 76 14
78 76 108
79 76 272
80 76 104
81 76 304
82 76 84
83 75 483
84 75 856
85 75 624
86 75 347
87 75 75
88 75 111
89 75 510
90 74 195
91 74 259
92 74 347
93 74 788
94 74 837
95 74 548
96 74 13
97 73 568
98 73 928
99 73 456
100 73 196
101 73 2
102 73 98
103 73 461
104 73 133
105 72 764
106 72 542
107 72 151
108 71 635
109 71 685
110 71 602
111 71 105
112 71 187
113 71 8
114 70 522
115 70 525
116 70 132
117 70 753
118 69 998
119 69 505
120 69 660
121 69 843
122 69 737
123 69 255
124 69 829
125 68 43
126 68 261
127 68 691
128 68 27
129 68 921
130 67 276
131 67 437
132 67 895
133 67 540
134 67 874
135 67 129
136 66 704
137 65 592
138 65 218
139 65 564
140 65 856
141 64 161
142 64 158
143 63 459
144 63 172
145 63 580
146 63 440
147 63 956
148 62 130
149 62 545
150 62 671
151 61 822
152 61 999
153 61 886
154 60 542
155 60 478
156 60 928
157 60 392
158 60 419
159 60 481
160 60 384
161 60 739
162 59 938
163 59 135
164 58 453
165 57 580
166 57 460
167 57 600
168 57 32
169 57 580
170 57 835
171 56 533
172 56 759
173 56 545
174 56 583
175 55 849
176 55 643
177 55 426
178 55 183
179 54 294
180 54 530
181 54 672
182 53 845
183 53 481
184 53 553
185 53 418
186 53 804
187 53 161
188 52 315
189 52 74
190 52 993
191 52 711
192 52 650
193 51 806
194 51 473
195 50 935
196 50 45
197 50 713
198 50 398
199 49 761
200 49 54
201 49 428
202 49 736
203 49 2
204 49 112
205 49 82
206 49 31
207 49 67
208 48 591
209 48 892
210 48 306
211 48 972
212 47 352
213 47 614
214 47 699
215 47 674
216 47 581
217 47 880
218 47 167
219 47 538
220 46 876
221 46 875
222 45 60
223 45 61
224 45 963
225 45 839
226 44 333
227 44 665
228 44 693
229 44 301
230 44 908
231 43 351
232 43 974
233 43 131
234 43 489
235 42 862
236 42 826
237 41 596
238 41 994
239 41 905
240 41 198
241 40 295
242 39 954
243 39 884
244 39 578
245 39 543
246 39 921
247 38 97
248 38 467
249 37 103
250 37 866
251 37 938
252 36 672
253 36 899
254 36 373
255 36 491
256 36 152
257 36 14
258 35 991
259 35 734
260 35 417
261 35 413
262 34 967
263 34 52
264 34 578
265 34 942
266 33 376
267 33 819
268 33 531
269 33 74
270 33 648
271 33 944
272 32 876
273 32 315
274 32 910
275 32 588
276 32 6
277 31 11
278 31 839
279 31 746
280 31 705
281 31 811
282 30 203
283 30 194
284 30 359
285 29 107
286 29 970
287 29 220
288 29 508
289 29 657
290 28 395
291 26 595
292 26 115
293 25 915
294 25 716
295 25 21
296 24 472
297 24 967
298 24 847
299 24 725
300 24 54
